%%% static parameters %%%
timespan = 1;
Fact = [2];
Distr1 = [5];
Distr2 = [10];
Clients_N = [120];
Demand_W = [15];
Lt0 = [4];
Lt1 = [4];
SS_ = [0.85];
DS_D = [5];
K = [200];
MA = [500];
%%% dynamic parameters %%%
lost_ratio_sales_ret_th = 0.10953575215677502;
lost_ratio_sales_ret_w = 89;
lost_ratio_sales_dis_th = 0.21077319609338718;
lost_ratio_sales_dis_w = 16;
lost_ratio_sales_fac_th = 0.7620074561658113;
lost_ratio_sales_fac_w = 9;
stock_customer_MA_mean_relative_th = 0.5745876945298026;
stock_customer_MA_mean_relative_w = 36;
stock_distributor_MA_mean_relative_th = 0.8478696639081437;
stock_distributor_MA_mean_relative_w = 51;
stock_retailer_MA_mean_relative_th = 0.4394078971285754;
stock_retailer_MA_mean_relative_w = 15;
stock_factory_MA_mean_relative_th = 0.5816532497091392;
stock_factory_MA_mean_relative_w = 81;
